* #variable= 437 #constraint= 156
min: +18 x1 +69 x2 +4 x3 +74 x4 +70 x5 +72 x6 +55 x7 +53 x8 +65 x9 +60 x10 +83 x11 +65 x12 +100 x13 +69 x14 +91 x15 +14 x16 +46 x17 +56 x18 +77 x19 +19 x20 +64 x21 +64 x22 +31 x23 +48 x24 +79 x25 +51 x26 +1 x27 +52 x28 +93 x29 +40 x30 +2 x31 +73 x32 +62 x33 +34 x34 +95 x35 +83 x36 +89 x37 +50 x38 +46 x39 +38 x40 +21 x41 +30 x42 +3 x43 +55 x44 +65 x45 +8 x46 +74 x47 +50 x48 +75 x49 +77 x50 +3 x51 +35 x52 +100 x53 +89 x54 +40 x55 +45 x56 +78 x57 +71 x58 +73 x59 +81 x60 +44 x61 +68 x62 +96 x63 +33 x64 +39 x65 +56 x66 +71 x67 +3 x68 +23 x69 +77 x70 +37 x71 +99 x72 ;

+18 x1 +69 x2 +4 x3 +74 x4 +70 x5 +72 x6 +55 x7 +53 x8 +65 x9 +60 x10 +83 x11 +65 x12 +100 x13 +69 x14 +91 x15 +14 x16 +46 x17 +56 x18 +77 x19 +19 x20 +64 x21 +64 x22 +31 x23 +48 x24 +79 x25 +51 x26 +1 x27 +52 x28 +93 x29 +40 x30 +2 x31 +73 x32 +62 x33 +34 x34 +95 x35 +83 x36 +89 x37 +50 x38 +46 x39 +38 x40 +21 x41 +30 x42 +3 x43 +55 x44 +65 x45 +8 x46 +74 x47 +50 x48 +75 x49 +77 x50 +3 x51 +35 x52 +100 x53 +89 x54 +40 x55 +45 x56 +78 x57 +71 x58 +73 x59 +81 x60 +44 x61 +68 x62 +96 x63 +33 x64 +39 x65 +56 x66 +71 x67 +3 x68 +23 x69 +77 x70 +37 x71 +99 x72 >= 0 ;

+1 x1 +1 x2 +1 x3 +1 x4 +1 x5 +1 x6 +1 x7 +1 x8 = 1 ;
+1 x9 +1 x10 +1 x11 +1 x12 +1 x13 +1 x14 +1 x15 +1 x16 = 1 ;
+1 x17 +1 x18 +1 x19 +1 x20 +1 x21 +1 x22 +1 x23 +1 x24 = 1 ;
+1 x25 +1 x26 +1 x27 +1 x28 +1 x29 +1 x30 +1 x31 +1 x32 = 1 ;
+1 x33 +1 x34 +1 x35 +1 x36 +1 x37 +1 x38 +1 x39 +1 x40 = 1 ;
+1 x41 +1 x42 +1 x43 +1 x44 +1 x45 +1 x46 +1 x47 +1 x48 = 1 ;
+1 x49 +1 x50 +1 x51 +1 x52 +1 x53 +1 x54 +1 x55 +1 x56 = 1 ;
+1 x57 +1 x58 +1 x59 +1 x60 +1 x61 +1 x62 +1 x63 +1 x64 = 1 ;
+1 x65 +1 x66 +1 x67 +1 x68 +1 x69 +1 x70 +1 x71 +1 x72 = 1 ;

+1 x9 +1 x17 +1 x25 +1 x33 +1 x41 +1 x49 +1 x57 +1 x65 = 1 ;
+1 x1 +1 x18 +1 x26 +1 x34 +1 x42 +1 x50 +1 x58 +1 x66 = 1 ;
+1 x2 +1 x10 +1 x27 +1 x35 +1 x43 +1 x51 +1 x59 +1 x67 = 1 ;
+1 x3 +1 x11 +1 x19 +1 x36 +1 x44 +1 x52 +1 x60 +1 x68 = 1 ;
+1 x4 +1 x12 +1 x20 +1 x28 +1 x45 +1 x53 +1 x61 +1 x69 = 1 ;
+1 x5 +1 x13 +1 x21 +1 x29 +1 x37 +1 x54 +1 x62 +1 x70 = 1 ;
+1 x6 +1 x14 +1 x22 +1 x30 +1 x38 +1 x46 +1 x63 +1 x71 = 1 ;
+1 x7 +1 x15 +1 x23 +1 x31 +1 x39 +1 x47 +1 x55 +1 x72 = 1 ;
+1 x8 +1 x16 +1 x24 +1 x32 +1 x40 +1 x48 +1 x56 +1 x64 = 1 ;

+1 x73 +2 x74 +4 x75 +8 x76 +16 x77  >= 0 ;
+1 x78 +2 x79 +4 x80 +8 x81 +16 x82  >= 0 ;
+1 x83 +2 x84 +4 x85 +8 x86 +16 x87  >= 0 ;
+1 x88 +2 x89 +4 x90 +8 x91 +16 x92  >= 0 ;
+1 x93 +2 x94 +4 x95 +8 x96 +16 x97  >= 0 ;
+1 x98 +2 x99 +4 x100 +8 x101 +16 x102  >= 0 ;
+1 x103 +2 x104 +4 x105 +8 x106 +16 x107  >= 0 ;
+1 x108 +2 x109 +4 x110 +8 x111 +16 x112  >= 0 ;
+1 x113 +2 x114 +4 x115 +8 x116 +16 x117  >= 0 ;


+1 x118 +2 x119 +4 x120 +8 x121 +16 x122  >= 0 ;
+1 x73 +2 x74 +4 x75 +8 x76 +16 x77 -1 x78 -2 x79 -4 x80 -8 x81 -16 x82 +9 x1 +1 x118 +2 x119 +4 x120 +8 x121 +16 x122  = 8 ;

+1 x123 +2 x124 +4 x125 +8 x126 +16 x127  >= 0 ;
+1 x73 +2 x74 +4 x75 +8 x76 +16 x77 -1 x83 -2 x84 -4 x85 -8 x86 -16 x87 +9 x2 +1 x123 +2 x124 +4 x125 +8 x126 +16 x127  = 8 ;

+1 x128 +2 x129 +4 x130 +8 x131 +16 x132  >= 0 ;
+1 x73 +2 x74 +4 x75 +8 x76 +16 x77 -1 x88 -2 x89 -4 x90 -8 x91 -16 x92 +9 x3 +1 x128 +2 x129 +4 x130 +8 x131 +16 x132  = 8 ;

+1 x133 +2 x134 +4 x135 +8 x136 +16 x137  >= 0 ;
+1 x73 +2 x74 +4 x75 +8 x76 +16 x77 -1 x93 -2 x94 -4 x95 -8 x96 -16 x97 +9 x4 +1 x133 +2 x134 +4 x135 +8 x136 +16 x137  = 8 ;

+1 x138 +2 x139 +4 x140 +8 x141 +16 x142  >= 0 ;
+1 x73 +2 x74 +4 x75 +8 x76 +16 x77 -1 x98 -2 x99 -4 x100 -8 x101 -16 x102 +9 x5 +1 x138 +2 x139 +4 x140 +8 x141 +16 x142  = 8 ;

+1 x143 +2 x144 +4 x145 +8 x146 +16 x147  >= 0 ;
+1 x73 +2 x74 +4 x75 +8 x76 +16 x77 -1 x103 -2 x104 -4 x105 -8 x106 -16 x107 +9 x6 +1 x143 +2 x144 +4 x145 +8 x146 +16 x147  = 8 ;

+1 x148 +2 x149 +4 x150 +8 x151 +16 x152  >= 0 ;
+1 x73 +2 x74 +4 x75 +8 x76 +16 x77 -1 x108 -2 x109 -4 x110 -8 x111 -16 x112 +9 x7 +1 x148 +2 x149 +4 x150 +8 x151 +16 x152  = 8 ;

+1 x153 +2 x154 +4 x155 +8 x156 +16 x157  >= 0 ;
+1 x73 +2 x74 +4 x75 +8 x76 +16 x77 -1 x113 -2 x114 -4 x115 -8 x116 -16 x117 +9 x8 +1 x153 +2 x154 +4 x155 +8 x156 +16 x157  = 8 ;

+1 x158 +2 x159 +4 x160 +8 x161 +16 x162  >= 0 ;
+1 x78 +2 x79 +4 x80 +8 x81 +16 x82 -1 x73 -2 x74 -4 x75 -8 x76 -16 x77 +9 x9 +1 x158 +2 x159 +4 x160 +8 x161 +16 x162  = 8 ;

+1 x163 +2 x164 +4 x165 +8 x166 +16 x167  >= 0 ;
+1 x78 +2 x79 +4 x80 +8 x81 +16 x82 -1 x83 -2 x84 -4 x85 -8 x86 -16 x87 +9 x10 +1 x163 +2 x164 +4 x165 +8 x166 +16 x167  = 8 ;

+1 x168 +2 x169 +4 x170 +8 x171 +16 x172  >= 0 ;
+1 x78 +2 x79 +4 x80 +8 x81 +16 x82 -1 x88 -2 x89 -4 x90 -8 x91 -16 x92 +9 x11 +1 x168 +2 x169 +4 x170 +8 x171 +16 x172  = 8 ;

+1 x173 +2 x174 +4 x175 +8 x176 +16 x177  >= 0 ;
+1 x78 +2 x79 +4 x80 +8 x81 +16 x82 -1 x93 -2 x94 -4 x95 -8 x96 -16 x97 +9 x12 +1 x173 +2 x174 +4 x175 +8 x176 +16 x177  = 8 ;

+1 x178 +2 x179 +4 x180 +8 x181 +16 x182  >= 0 ;
+1 x78 +2 x79 +4 x80 +8 x81 +16 x82 -1 x98 -2 x99 -4 x100 -8 x101 -16 x102 +9 x13 +1 x178 +2 x179 +4 x180 +8 x181 +16 x182  = 8 ;

+1 x183 +2 x184 +4 x185 +8 x186 +16 x187  >= 0 ;
+1 x78 +2 x79 +4 x80 +8 x81 +16 x82 -1 x103 -2 x104 -4 x105 -8 x106 -16 x107 +9 x14 +1 x183 +2 x184 +4 x185 +8 x186 +16 x187  = 8 ;

+1 x188 +2 x189 +4 x190 +8 x191 +16 x192  >= 0 ;
+1 x78 +2 x79 +4 x80 +8 x81 +16 x82 -1 x108 -2 x109 -4 x110 -8 x111 -16 x112 +9 x15 +1 x188 +2 x189 +4 x190 +8 x191 +16 x192  = 8 ;

+1 x193 +2 x194 +4 x195 +8 x196 +16 x197  >= 0 ;
+1 x78 +2 x79 +4 x80 +8 x81 +16 x82 -1 x113 -2 x114 -4 x115 -8 x116 -16 x117 +9 x16 +1 x193 +2 x194 +4 x195 +8 x196 +16 x197  = 8 ;

+1 x198 +2 x199 +4 x200 +8 x201 +16 x202  >= 0 ;
+1 x83 +2 x84 +4 x85 +8 x86 +16 x87 -1 x73 -2 x74 -4 x75 -8 x76 -16 x77 +9 x17 +1 x198 +2 x199 +4 x200 +8 x201 +16 x202  = 8 ;

+1 x203 +2 x204 +4 x205 +8 x206 +16 x207  >= 0 ;
+1 x83 +2 x84 +4 x85 +8 x86 +16 x87 -1 x78 -2 x79 -4 x80 -8 x81 -16 x82 +9 x18 +1 x203 +2 x204 +4 x205 +8 x206 +16 x207  = 8 ;

+1 x208 +2 x209 +4 x210 +8 x211 +16 x212  >= 0 ;
+1 x83 +2 x84 +4 x85 +8 x86 +16 x87 -1 x88 -2 x89 -4 x90 -8 x91 -16 x92 +9 x19 +1 x208 +2 x209 +4 x210 +8 x211 +16 x212  = 8 ;

+1 x213 +2 x214 +4 x215 +8 x216 +16 x217  >= 0 ;
+1 x83 +2 x84 +4 x85 +8 x86 +16 x87 -1 x93 -2 x94 -4 x95 -8 x96 -16 x97 +9 x20 +1 x213 +2 x214 +4 x215 +8 x216 +16 x217  = 8 ;

+1 x218 +2 x219 +4 x220 +8 x221 +16 x222  >= 0 ;
+1 x83 +2 x84 +4 x85 +8 x86 +16 x87 -1 x98 -2 x99 -4 x100 -8 x101 -16 x102 +9 x21 +1 x218 +2 x219 +4 x220 +8 x221 +16 x222  = 8 ;

+1 x223 +2 x224 +4 x225 +8 x226 +16 x227  >= 0 ;
+1 x83 +2 x84 +4 x85 +8 x86 +16 x87 -1 x103 -2 x104 -4 x105 -8 x106 -16 x107 +9 x22 +1 x223 +2 x224 +4 x225 +8 x226 +16 x227  = 8 ;

+1 x228 +2 x229 +4 x230 +8 x231 +16 x232  >= 0 ;
+1 x83 +2 x84 +4 x85 +8 x86 +16 x87 -1 x108 -2 x109 -4 x110 -8 x111 -16 x112 +9 x23 +1 x228 +2 x229 +4 x230 +8 x231 +16 x232  = 8 ;

+1 x233 +2 x234 +4 x235 +8 x236 +16 x237  >= 0 ;
+1 x83 +2 x84 +4 x85 +8 x86 +16 x87 -1 x113 -2 x114 -4 x115 -8 x116 -16 x117 +9 x24 +1 x233 +2 x234 +4 x235 +8 x236 +16 x237  = 8 ;

+1 x238 +2 x239 +4 x240 +8 x241 +16 x242  >= 0 ;
+1 x88 +2 x89 +4 x90 +8 x91 +16 x92 -1 x73 -2 x74 -4 x75 -8 x76 -16 x77 +9 x25 +1 x238 +2 x239 +4 x240 +8 x241 +16 x242  = 8 ;

+1 x243 +2 x244 +4 x245 +8 x246 +16 x247  >= 0 ;
+1 x88 +2 x89 +4 x90 +8 x91 +16 x92 -1 x78 -2 x79 -4 x80 -8 x81 -16 x82 +9 x26 +1 x243 +2 x244 +4 x245 +8 x246 +16 x247  = 8 ;

+1 x248 +2 x249 +4 x250 +8 x251 +16 x252  >= 0 ;
+1 x88 +2 x89 +4 x90 +8 x91 +16 x92 -1 x83 -2 x84 -4 x85 -8 x86 -16 x87 +9 x27 +1 x248 +2 x249 +4 x250 +8 x251 +16 x252  = 8 ;

+1 x253 +2 x254 +4 x255 +8 x256 +16 x257  >= 0 ;
+1 x88 +2 x89 +4 x90 +8 x91 +16 x92 -1 x93 -2 x94 -4 x95 -8 x96 -16 x97 +9 x28 +1 x253 +2 x254 +4 x255 +8 x256 +16 x257  = 8 ;

+1 x258 +2 x259 +4 x260 +8 x261 +16 x262  >= 0 ;
+1 x88 +2 x89 +4 x90 +8 x91 +16 x92 -1 x98 -2 x99 -4 x100 -8 x101 -16 x102 +9 x29 +1 x258 +2 x259 +4 x260 +8 x261 +16 x262  = 8 ;

+1 x263 +2 x264 +4 x265 +8 x266 +16 x267  >= 0 ;
+1 x88 +2 x89 +4 x90 +8 x91 +16 x92 -1 x103 -2 x104 -4 x105 -8 x106 -16 x107 +9 x30 +1 x263 +2 x264 +4 x265 +8 x266 +16 x267  = 8 ;

+1 x268 +2 x269 +4 x270 +8 x271 +16 x272  >= 0 ;
+1 x88 +2 x89 +4 x90 +8 x91 +16 x92 -1 x108 -2 x109 -4 x110 -8 x111 -16 x112 +9 x31 +1 x268 +2 x269 +4 x270 +8 x271 +16 x272  = 8 ;

+1 x273 +2 x274 +4 x275 +8 x276 +16 x277  >= 0 ;
+1 x88 +2 x89 +4 x90 +8 x91 +16 x92 -1 x113 -2 x114 -4 x115 -8 x116 -16 x117 +9 x32 +1 x273 +2 x274 +4 x275 +8 x276 +16 x277  = 8 ;

+1 x278 +2 x279 +4 x280 +8 x281 +16 x282  >= 0 ;
+1 x93 +2 x94 +4 x95 +8 x96 +16 x97 -1 x73 -2 x74 -4 x75 -8 x76 -16 x77 +9 x33 +1 x278 +2 x279 +4 x280 +8 x281 +16 x282  = 8 ;

+1 x283 +2 x284 +4 x285 +8 x286 +16 x287  >= 0 ;
+1 x93 +2 x94 +4 x95 +8 x96 +16 x97 -1 x78 -2 x79 -4 x80 -8 x81 -16 x82 +9 x34 +1 x283 +2 x284 +4 x285 +8 x286 +16 x287  = 8 ;

+1 x288 +2 x289 +4 x290 +8 x291 +16 x292  >= 0 ;
+1 x93 +2 x94 +4 x95 +8 x96 +16 x97 -1 x83 -2 x84 -4 x85 -8 x86 -16 x87 +9 x35 +1 x288 +2 x289 +4 x290 +8 x291 +16 x292  = 8 ;

+1 x293 +2 x294 +4 x295 +8 x296 +16 x297  >= 0 ;
+1 x93 +2 x94 +4 x95 +8 x96 +16 x97 -1 x88 -2 x89 -4 x90 -8 x91 -16 x92 +9 x36 +1 x293 +2 x294 +4 x295 +8 x296 +16 x297  = 8 ;

+1 x298 +2 x299 +4 x300 +8 x301 +16 x302  >= 0 ;
+1 x93 +2 x94 +4 x95 +8 x96 +16 x97 -1 x98 -2 x99 -4 x100 -8 x101 -16 x102 +9 x37 +1 x298 +2 x299 +4 x300 +8 x301 +16 x302  = 8 ;

+1 x303 +2 x304 +4 x305 +8 x306 +16 x307  >= 0 ;
+1 x93 +2 x94 +4 x95 +8 x96 +16 x97 -1 x103 -2 x104 -4 x105 -8 x106 -16 x107 +9 x38 +1 x303 +2 x304 +4 x305 +8 x306 +16 x307  = 8 ;

+1 x308 +2 x309 +4 x310 +8 x311 +16 x312  >= 0 ;
+1 x93 +2 x94 +4 x95 +8 x96 +16 x97 -1 x108 -2 x109 -4 x110 -8 x111 -16 x112 +9 x39 +1 x308 +2 x309 +4 x310 +8 x311 +16 x312  = 8 ;

+1 x313 +2 x314 +4 x315 +8 x316 +16 x317  >= 0 ;
+1 x93 +2 x94 +4 x95 +8 x96 +16 x97 -1 x113 -2 x114 -4 x115 -8 x116 -16 x117 +9 x40 +1 x313 +2 x314 +4 x315 +8 x316 +16 x317  = 8 ;

+1 x318 +2 x319 +4 x320 +8 x321 +16 x322  >= 0 ;
+1 x98 +2 x99 +4 x100 +8 x101 +16 x102 -1 x73 -2 x74 -4 x75 -8 x76 -16 x77 +9 x41 +1 x318 +2 x319 +4 x320 +8 x321 +16 x322  = 8 ;

+1 x323 +2 x324 +4 x325 +8 x326 +16 x327  >= 0 ;
+1 x98 +2 x99 +4 x100 +8 x101 +16 x102 -1 x78 -2 x79 -4 x80 -8 x81 -16 x82 +9 x42 +1 x323 +2 x324 +4 x325 +8 x326 +16 x327  = 8 ;

+1 x328 +2 x329 +4 x330 +8 x331 +16 x332  >= 0 ;
+1 x98 +2 x99 +4 x100 +8 x101 +16 x102 -1 x83 -2 x84 -4 x85 -8 x86 -16 x87 +9 x43 +1 x328 +2 x329 +4 x330 +8 x331 +16 x332  = 8 ;

+1 x333 +2 x334 +4 x335 +8 x336 +16 x337  >= 0 ;
+1 x98 +2 x99 +4 x100 +8 x101 +16 x102 -1 x88 -2 x89 -4 x90 -8 x91 -16 x92 +9 x44 +1 x333 +2 x334 +4 x335 +8 x336 +16 x337  = 8 ;

+1 x338 +2 x339 +4 x340 +8 x341 +16 x342  >= 0 ;
+1 x98 +2 x99 +4 x100 +8 x101 +16 x102 -1 x93 -2 x94 -4 x95 -8 x96 -16 x97 +9 x45 +1 x338 +2 x339 +4 x340 +8 x341 +16 x342  = 8 ;

+1 x343 +2 x344 +4 x345 +8 x346 +16 x347  >= 0 ;
+1 x98 +2 x99 +4 x100 +8 x101 +16 x102 -1 x103 -2 x104 -4 x105 -8 x106 -16 x107 +9 x46 +1 x343 +2 x344 +4 x345 +8 x346 +16 x347  = 8 ;

+1 x348 +2 x349 +4 x350 +8 x351 +16 x352  >= 0 ;
+1 x98 +2 x99 +4 x100 +8 x101 +16 x102 -1 x108 -2 x109 -4 x110 -8 x111 -16 x112 +9 x47 +1 x348 +2 x349 +4 x350 +8 x351 +16 x352  = 8 ;

+1 x353 +2 x354 +4 x355 +8 x356 +16 x357  >= 0 ;
+1 x98 +2 x99 +4 x100 +8 x101 +16 x102 -1 x113 -2 x114 -4 x115 -8 x116 -16 x117 +9 x48 +1 x353 +2 x354 +4 x355 +8 x356 +16 x357  = 8 ;

+1 x358 +2 x359 +4 x360 +8 x361 +16 x362  >= 0 ;
+1 x103 +2 x104 +4 x105 +8 x106 +16 x107 -1 x73 -2 x74 -4 x75 -8 x76 -16 x77 +9 x49 +1 x358 +2 x359 +4 x360 +8 x361 +16 x362  = 8 ;

+1 x363 +2 x364 +4 x365 +8 x366 +16 x367  >= 0 ;
+1 x103 +2 x104 +4 x105 +8 x106 +16 x107 -1 x78 -2 x79 -4 x80 -8 x81 -16 x82 +9 x50 +1 x363 +2 x364 +4 x365 +8 x366 +16 x367  = 8 ;

+1 x368 +2 x369 +4 x370 +8 x371 +16 x372  >= 0 ;
+1 x103 +2 x104 +4 x105 +8 x106 +16 x107 -1 x83 -2 x84 -4 x85 -8 x86 -16 x87 +9 x51 +1 x368 +2 x369 +4 x370 +8 x371 +16 x372  = 8 ;

+1 x373 +2 x374 +4 x375 +8 x376 +16 x377  >= 0 ;
+1 x103 +2 x104 +4 x105 +8 x106 +16 x107 -1 x88 -2 x89 -4 x90 -8 x91 -16 x92 +9 x52 +1 x373 +2 x374 +4 x375 +8 x376 +16 x377  = 8 ;

+1 x378 +2 x379 +4 x380 +8 x381 +16 x382  >= 0 ;
+1 x103 +2 x104 +4 x105 +8 x106 +16 x107 -1 x93 -2 x94 -4 x95 -8 x96 -16 x97 +9 x53 +1 x378 +2 x379 +4 x380 +8 x381 +16 x382  = 8 ;

+1 x383 +2 x384 +4 x385 +8 x386 +16 x387  >= 0 ;
+1 x103 +2 x104 +4 x105 +8 x106 +16 x107 -1 x98 -2 x99 -4 x100 -8 x101 -16 x102 +9 x54 +1 x383 +2 x384 +4 x385 +8 x386 +16 x387  = 8 ;

+1 x388 +2 x389 +4 x390 +8 x391 +16 x392  >= 0 ;
+1 x103 +2 x104 +4 x105 +8 x106 +16 x107 -1 x108 -2 x109 -4 x110 -8 x111 -16 x112 +9 x55 +1 x388 +2 x389 +4 x390 +8 x391 +16 x392  = 8 ;

+1 x393 +2 x394 +4 x395 +8 x396 +16 x397  >= 0 ;
+1 x103 +2 x104 +4 x105 +8 x106 +16 x107 -1 x113 -2 x114 -4 x115 -8 x116 -16 x117 +9 x56 +1 x393 +2 x394 +4 x395 +8 x396 +16 x397  = 8 ;

+1 x398 +2 x399 +4 x400 +8 x401 +16 x402  >= 0 ;
+1 x108 +2 x109 +4 x110 +8 x111 +16 x112 -1 x73 -2 x74 -4 x75 -8 x76 -16 x77 +9 x57 +1 x398 +2 x399 +4 x400 +8 x401 +16 x402  = 8 ;

+1 x403 +2 x404 +4 x405 +8 x406 +16 x407  >= 0 ;
+1 x108 +2 x109 +4 x110 +8 x111 +16 x112 -1 x78 -2 x79 -4 x80 -8 x81 -16 x82 +9 x58 +1 x403 +2 x404 +4 x405 +8 x406 +16 x407  = 8 ;

+1 x408 +2 x409 +4 x410 +8 x411 +16 x412  >= 0 ;
+1 x108 +2 x109 +4 x110 +8 x111 +16 x112 -1 x83 -2 x84 -4 x85 -8 x86 -16 x87 +9 x59 +1 x408 +2 x409 +4 x410 +8 x411 +16 x412  = 8 ;

+1 x413 +2 x414 +4 x415 +8 x416 +16 x417  >= 0 ;
+1 x108 +2 x109 +4 x110 +8 x111 +16 x112 -1 x88 -2 x89 -4 x90 -8 x91 -16 x92 +9 x60 +1 x413 +2 x414 +4 x415 +8 x416 +16 x417  = 8 ;

+1 x418 +2 x419 +4 x420 +8 x421 +16 x422  >= 0 ;
+1 x108 +2 x109 +4 x110 +8 x111 +16 x112 -1 x93 -2 x94 -4 x95 -8 x96 -16 x97 +9 x61 +1 x418 +2 x419 +4 x420 +8 x421 +16 x422  = 8 ;

+1 x423 +2 x424 +4 x425 +8 x426 +16 x427  >= 0 ;
+1 x108 +2 x109 +4 x110 +8 x111 +16 x112 -1 x98 -2 x99 -4 x100 -8 x101 -16 x102 +9 x62 +1 x423 +2 x424 +4 x425 +8 x426 +16 x427  = 8 ;

+1 x428 +2 x429 +4 x430 +8 x431 +16 x432  >= 0 ;
+1 x108 +2 x109 +4 x110 +8 x111 +16 x112 -1 x103 -2 x104 -4 x105 -8 x106 -16 x107 +9 x63 +1 x428 +2 x429 +4 x430 +8 x431 +16 x432  = 8 ;

+1 x433 +2 x434 +4 x435 +8 x436 +16 x437  >= 0 ;
+1 x108 +2 x109 +4 x110 +8 x111 +16 x112 -1 x113 -2 x114 -4 x115 -8 x116 -16 x117 +9 x64 +1 x433 +2 x434 +4 x435 +8 x436 +16 x437  = 8 ;